;(set-option :produce-unsat-cores true )
(set-logic ALL_SUPPORTED )
(declare-sort A$ 0 )
(declare-sort Nat$ 0 )
(declare-sort A_tree_set$ 0 )
(declare-sort Num$ 0)
(declare-sort A_tree$ 0)
(declare-fun one$ ()Num$)
(declare-fun select$ (Num$)Num$)
(declare-fun bit0$ (Num$ )Num$)
(declare-fun selecta$ (Num$)Num$)
(declare-fun bit1$ (Num$ )Num$)
(declare-fun leaf$ ()A_tree$)
(declare-fun left$ (A_tree$)A_tree$)
(declare-fun val$ (A_tree$)A$)
(declare-fun right$ (A_tree$)A_tree$)
(declare-fun node$ (A_tree$ A$ A_tree$ )A_tree$)
(declare-fun a$ (A$ A_tree$ )Real )
(declare-fun b$ ()A$ )
(declare-fun c$ ()A$ )
(declare-fun l$ ()A_tree$ )
(declare-fun r$ ()A_tree$ )
(declare-fun u$ ()A$ )
(declare-fun aa$ ()A$ )
(declare-fun l$a ()A_tree$ )
(declare-fun la$ ()A_tree$ )
(declare-fun r$a ()A_tree$ )
(declare-fun ra$ ()A_tree$ )
(declare-fun rl$ ()A_tree$ )
(declare-fun rr$ ()A_tree$ )
(declare-fun log$ (Real Real )Real )
(declare-fun less$ (A$ A$ )Bool )
(declare-fun real$ (Nat$ )Real )
(declare-fun size1$ (A_tree$ )Nat$ )
(declare-fun splay$ (A$ A_tree$ )A_tree$ )
(declare-fun times$ (Real Real )Real )
(declare-fun member$ (A_tree$ A_tree_set$ )Bool )
(declare-fun numeral$ (Num$ )Real )
(declare-fun subtrees$ (A_tree$ )A_tree_set$ )
(assert (! (not (= (+ (- (- (- (+ (+ (* 3.0 (log$ 2.0 (real$ (size1$ rl$ ))))(log$ 2.0 (real$ (size1$ (node$ r$ b$ rr$ )))))(log$ 2.0 (real$ (size1$ (node$ l$ c$ l$a )))))(log$ 2.0 (real$ (size1$ (node$ rl$ b$ rr$ )))))(log$ 2.0 (real$ (size1$ (node$ l$a u$ r$ )))))(* 3.0 (log$ 2.0 (real$ (size1$ (node$ la$ aa$ ra$ ))))))2.0 )(+ (- (- (+ (+ (* 2.0 (log$ 2.0 (real$ (size1$ rl$ ))))(log$ 2.0 (real$ (size1$ (node$ r$ b$ rr$ )))))(log$ 2.0 (real$ (size1$ (node$ l$ c$ l$a )))))(log$ 2.0 (real$ (size1$ (node$ rl$ b$ rr$ )))))(* 3.0 (log$ 2.0 (real$ (size1$ (node$ la$ aa$ ra$ ))))))2.0 ))):named a0 ))
(assert (! (not (= aa$ c$ )):named a1 ))
(assert (! (not (= aa$ b$ )):named a2 ))
(assert (! (= (splay$ aa$ rl$ )(node$ l$a u$ r$ )):named a3 ))
(assert (! (=> (forall ((?v0 A_tree$ )(?v1 A$ )(?v2 A_tree$ ))(=> (= (splay$ aa$ rl$ )(node$ ?v0 ?v1 ?v2 ))false ))false ):named a4 ))
(assert (! (less$ c$ aa$ ):named a5 ))
(assert (! (less$ aa$ b$ ):named a6 ))
(assert (! (member$ (node$ la$ aa$ ra$ )(subtrees$ (node$ l$ c$ r$a ))):named a7 ))
(assert (! (forall ((?v0 Real )(?v1 Real )(?v2 Num$ ))(= (times$ (- ?v0 ?v1 )(numeral$ ?v2 ))(- (times$ ?v0 (numeral$ ?v2 ))(times$ ?v1 (numeral$ ?v2 ))))):named a8 ))
(assert (! (forall ((?v0 Num$ )(?v1 Real )(?v2 Real ))(= (times$ (numeral$ ?v0 )(- ?v1 ?v2 ))(- (times$ (numeral$ ?v0 )?v1 )(times$ (numeral$ ?v0 )?v2 )))):named a9 ))
(assert (! (forall ((?v0 Real )(?v1 Real )(?v2 Num$ ))(= (times$ (+ ?v0 ?v1 )(numeral$ ?v2 ))(+ (times$ ?v0 (numeral$ ?v2 ))(times$ ?v1 (numeral$ ?v2 ))))):named a10 ))
(assert (! (forall ((?v0 Num$ )(?v1 Real )(?v2 Real ))(= (times$ (numeral$ ?v0 )(+ ?v1 ?v2 ))(+ (times$ (numeral$ ?v0 )?v1 )(times$ (numeral$ ?v0 )?v2 )))):named a11 ))
(assert (! (<= (a$ aa$ (node$ l$ c$ r$a ))(+ (- (- (- (+ (+ (* 3.0 (log$ 2.0 (real$ (size1$ rl$ ))))(log$ 2.0 (real$ (size1$ (node$ r$ b$ rr$ )))))(log$ 2.0 (real$ (size1$ (node$ l$ c$ l$a )))))(log$ 2.0 (real$ (size1$ (node$ rl$ b$ rr$ )))))(log$ 2.0 (real$ (size1$ (node$ l$a u$ r$ )))))(* 3.0 (log$ 2.0 (real$ (size1$ (node$ la$ aa$ ra$ ))))))2.0 )):named a12 ))
(assert (! (forall ((?v0 Num$ ))(= (= (bit1$ ?v0 )one$ )false )):named a13 ))
(assert (! (forall ((?v0 Num$ ))(= (= one$ (bit1$ ?v0 ))false )):named a14 ))
(assert (! (forall ((?v0 Num$ )(?v1 Num$ ))(= (= (bit0$ ?v0 )(bit1$ ?v1 ))false )):named a15 ))
(assert (! (forall ((?v0 Num$ )(?v1 Num$ ))(= (= (bit1$ ?v0 )(bit0$ ?v1 ))false )):named a16 ))
(assert (! (<= (+ (- (- (+ (+ (a$ aa$ rl$ )(log$ 2.0 (real$ (size1$ (node$ r$ b$ rr$ )))))(log$ 2.0 (real$ (size1$ (node$ l$ c$ l$a )))))(log$ 2.0 (real$ (size1$ (node$ rl$ b$ rr$ )))))(log$ 2.0 (real$ (size1$ (node$ l$a u$ r$ )))))1.0 )(+ (- (- (- (+ (+ (* 3.0 (log$ 2.0 (real$ (size1$ rl$ ))))(log$ 2.0 (real$ (size1$ (node$ r$ b$ rr$ )))))(log$ 2.0 (real$ (size1$ (node$ l$ c$ l$a )))))(log$ 2.0 (real$ (size1$ (node$ rl$ b$ rr$ )))))(log$ 2.0 (real$ (size1$ (node$ l$a u$ r$ )))))(* 3.0 (log$ 2.0 (real$ (size1$ (node$ la$ aa$ ra$ ))))))2.0 )):named a17 ))
(check-sat )
;(get-unsat-core )
